eo1-3_small.out
2 0 0 17.6 17.6 0 0 20
2 1.8 0 15.840000000000002 15.840000000000002 0 18 20
0 1.8 1.6 14.080000000000002 14.080000000000002 16 18 0
6 8 11.6 25.72 40.32 32 18 20
6 8 10 35.96 39.76 16 18 20
0 0 10 20.8 10 1 0 0
0 8 10 7.040000000000001 7.040000000000001 1 0.8 0
6 8 0 5.28 5.28 0 0.8 0.6
